param n := 120;
param c := 10000
param : V : p w :=
   0	 443	 433
   1	 270	 260
   2	 317	 307
   3	 503	 493
   4	 262	 252
   5	 265	 255
   6	 425	 415
   7	 290	 280
   8	 315	 305
   9	 467	 457
  10	 263	 253
  11	 300	 290
  12	 501	 491
  13	 261	 251
  14	 268	 258
  15	 385	 375
  16	 264	 254
  17	 381	 371
  18	 412	 402
  19	 299	 289
  20	 319	 309
  21	 420	 410
  22	 285	 275
  23	 325	 315
  24	 403	 393
  25	 285	 275
  26	 342	 332
  27	 472	 462
  28	 269	 259
  29	 289	 279
  30	 424	 414
  31	 264	 254
  32	 342	 332
  33	 365	 355
  34	 322	 312
  35	 343	 333
  36	 484	 474
  37	 268	 258
  38	 278	 268
  39	 430	 420
  40	 292	 282
  41	 308	 298
  42	 463	 453
  43	 282	 272
  44	 285	 275
  45	 418	 408
  46	 299	 289
  47	 313	 303
  48	 421	 411
  49	 270	 260
  50	 339	 329
  51	 373	 363
  52	 313	 303
  53	 344	 334
  54	 457	 447
  55	 265	 255
  56	 308	 298
  57	 481	 471
  58	 266	 256
  59	 283	 273
  60	 509	 499
  61	 260	 250
  62	 261	 251
  63	 434	 424
  64	 287	 277
  65	 309	 299
  66	 475	 465
  67	 267	 257
  68	 288	 278
  69	 383	 373
  70	 279	 269
  71	 368	 358
  72	 504	 494
  73	 260	 250
  74	 266	 256
  75	 423	 413
  76	 291	 281
  77	 316	 306
  78	 472	 462
  79	 267	 257
  80	 291	 281
  81	 445	 435
  82	 290	 280
  83	 295	 285
  84	 490	 480
  85	 260	 250
  86	 280	 270
  87	 399	 389
  88	 281	 271
  89	 350	 340
  90	 472	 462
  91	 264	 254
  92	 294	 284
  93	 479	 469
  94	 269	 259
  95	 282	 272
  96	 361	 351
  97	 301	 291
  98	 368	 358
  99	 399	 389
 100	 278	 268
 101	 353	 343
 102	 393	 383
 103	 292	 282
 104	 345	 335
 105	 404	 394
 106	 298	 288
 107	 328	 318
 108	 403	 393
 109	 268	 258
 110	 359	 349
 111	 492	 482
 112	 267	 257
 113	 271	 261
 114	 373	 363
 115	 292	 282
 116	 365	 355
 117	 433	 423
 118	 274	 264
 119	 323	 313
;

set E :=
   0	   5
   0	   7
   0	  20
   0	  33
   0	  39
   0	  51
   0	  53
   0	  59
   0	  74
   0	 104
   0	 111
   1	   8
   1	  14
   1	  22
   1	  26
   1	  30
   1	  31
   1	  62
   1	  67
   1	  76
   1	  84
   1	 103
   1	 111
   2	   3
   2	  15
   2	  16
   2	  18
   2	  19
   2	  22
   2	  27
   2	  29
   2	  34
   2	  78
   2	  81
   2	  82
   2	 104
   3	   5
   3	   6
   3	  44
   3	  46
   3	  72
   3	  73
   3	  81
   3	  82
   3	  83
   3	  90
   3	 104
   3	 111
   4	   6
   4	  57
   4	  67
   4	  85
   4	 109
   4	 114
   5	  20
   5	  21
   5	  22
   5	  26
   5	  46
   5	  48
   5	  87
   5	  89
   5	 100
   5	 102
   5	 108
   6	   7
   6	   8
   6	  21
   6	  27
   6	  39
   6	  47
   6	  48
   6	  65
   6	  76
   6	  90
   6	  91
   6	 102
   6	 107
   7	   8
   7	  14
   7	  19
   7	  21
   7	  23
   7	  63
   7	  75
   7	 108
   8	  23
   8	  51
   8	  59
   8	  65
   8	  71
   8	  72
   8	  83
   8	 108
   8	 113
   9	  12
   9	  37
   9	  41
   9	  48
   9	  52
   9	  57
   9	  78
   9	  88
   9	 103
   9	 115
  10	  12
  10	  15
  10	  18
  10	  24
  10	  37
  10	  63
  10	  71
  10	  86
  10	  90
  10	 100
  10	 102
  10	 117
  11	  18
  11	  21
  11	  50
  11	  57
  11	  63
  11	  68
  11	  80
  11	  88
  11	  98
  12	  19
  12	  40
  12	  47
  12	  53
  12	  61
  12	  68
  12	  71
  12	  80
  12	 102
  12	 103
  12	 104
  12	 106
  12	 113
  13	  19
  13	  41
  13	  44
  13	  49
  13	  51
  13	  55
  13	  58
  13	  62
  13	  69
  13	  80
  13	  89
  13	  95
  13	  97
  13	 103
  14	  25
  14	  30
  14	  38
  14	  45
  14	  50
  14	  56
  14	  61
  14	  70
  14	  79
  14	  87
  14	  91
  14	  93
  14	 100
  14	 104
  15	  31
  15	  35
  15	  39
  15	  49
  15	  69
  15	  71
  15	  72
  15	  77
  15	  84
  15	  86
  15	  94
  15	  96
  15	 102
  15	 111
  15	 119
  16	  23
  16	  24
  16	  38
  16	  39
  16	  50
  16	  52
  16	  53
  16	  54
  16	  55
  16	  56
  16	  59
  16	  65
  16	  67
  16	  79
  16	 102
  16	 107
  16	 109
  16	 114
  17	  23
  17	  24
  17	  43
  17	  54
  17	  56
  17	  63
  17	  68
  17	  71
  17	  77
  17	 100
  17	 102
  18	  25
  18	  29
  18	  42
  18	  46
  18	  82
  18	  83
  18	  93
  18	  94
  18	 102
  18	 103
  18	 106
  18	 110
  19	  27
  19	  35
  19	  40
  19	 102
  20	  37
  20	  40
  20	  43
  20	  54
  20	  87
  21	  34
  21	  37
  21	  59
  21	  76
  21	  82
  21	  97
  21	  98
  21	 105
  21	 107
  21	 111
  21	 118
  21	 119
  22	  23
  22	  40
  22	  42
  22	  50
  22	  55
  22	  65
  22	  69
  22	  86
  22	  89
  22	  90
  22	  97
  23	  39
  23	  62
  23	  86
  23	  93
  23	 117
  24	  25
  24	  39
  24	  40
  24	  44
  24	  49
  24	  68
  24	  69
  24	  76
  24	  95
  25	  27
  25	  32
  25	  67
  25	  76
  25	  82
  25	  85
  25	  94
  25	 106
  25	 119
  26	  31
  26	  36
  26	  58
  26	  59
  26	  63
  26	  71
  26	  76
  26	  79
  26	  87
  26	  96
  26	 119
  27	  30
  27	  34
  27	  39
  27	  42
  27	  52
  27	  54
  27	  61
  27	  62
  27	  81
  27	  95
  27	 108
  27	 110
  28	  34
  28	  58
  28	  65
  28	  74
  28	  92
  28	 103
  28	 104
  28	 118
  29	  35
  29	  57
  29	  60
  29	  64
  29	  76
  29	  90
  29	 101
  30	  36
  30	  40
  30	  91
  30	  92
  31	  47
  31	  55
  31	  60
  31	  78
  31	 103
  31	 106
  31	 113
  32	  46
  32	  63
  32	  65
  32	  69
  32	  72
  32	  74
  32	  84
  32	  92
  32	 111
  32	 113
  32	 117
  32	 118
  33	  39
  33	  42
  33	  43
  33	  51
  33	  54
  33	  64
  33	  69
  33	  70
  33	  78
  33	  86
  33	  88
  33	  91
  33	 107
  34	  37
  34	  38
  34	  73
  34	  82
  34	  87
  34	  99
  34	 115
  35	  39
  35	  59
  35	  60
  35	  72
  35	  83
  35	  90
  35	 103
  35	 113
  35	 117
  36	  41
  36	  48
  36	  94
  36	 113
  36	 117
  37	  44
  37	  49
  37	  60
  37	  65
  37	  66
  37	  70
  37	  75
  37	  76
  37	  89
  37	 113
  38	  57
  38	  64
  38	  83
  38	  90
  38	 100
  38	 119
  39	  64
  39	  69
  39	  75
  39	  76
  39	 113
  40	  46
  40	  53
  40	  58
  40	  86
  40	  87
  40	  94
  40	 108
  40	 110
  40	 111
  41	  43
  41	  46
  41	  60
  41	  65
  41	  79
  41	 109
  41	 112
  42	  49
  42	  53
  42	  54
  42	  58
  42	  59
  42	  65
  42	  67
  42	  70
  42	  77
  42	  93
  42	 102
  42	 112
  42	 114
  43	  45
  43	  55
  43	  62
  43	  67
  43	  87
  43	  95
  43	 111
  43	 117
  44	  48
  44	  56
  44	  63
  44	  67
  44	  69
  44	  71
  44	  89
  44	  98
  44	 105
  45	  64
  45	  68
  45	  69
  45	  75
  45	  79
  45	  97
  45	 105
  45	 113
  45	 117
  45	 118
  46	  61
  46	  63
  46	  68
  46	  77
  46	  91
  46	  92
  46	  93
  46	 105
  46	 106
  47	  48
  47	  49
  47	  53
  47	  56
  47	  58
  47	  63
  47	  71
  47	  80
  47	  96
  47	 108
  47	 112
  47	 116
  48	  55
  48	  74
  48	  82
  48	  91
  48	  92
  49	  56
  49	  58
  49	  59
  49	  65
  49	  68
  49	 112
  49	 118
  50	  70
  50	  71
  50	  75
  50	  92
  50	 109
  51	  52
  51	  60
  51	  74
  51	  76
  51	  80
  51	 106
  51	 108
  51	 111
  52	 107
  52	 111
  52	 119
  53	  55
  53	  59
  53	  62
  53	  71
  53	  78
  53	  93
  53	 109
  53	 116
  54	  59
  54	  62
  54	  68
  54	  77
  54	  93
  54	 101
  54	 112
  54	 113
  54	 115
  54	 119
  55	  67
  55	  73
  55	  94
  55	  96
  55	  98
  55	 117
  55	 118
  56	  65
  56	  74
  56	  80
  56	  86
  56	  99
  56	 101
  56	 110
  56	 114
  57	  75
  57	 102
  57	 103
  58	  59
  58	 102
  58	 105
  59	  68
  59	  78
  59	  85
  59	  98
  59	 101
  59	 107
  59	 111
  60	  67
  60	  78
  60	  82
  60	  90
  60	 105
  60	 106
  60	 115
  61	  71
  61	  74
  61	 105
  61	 113
  62	  63
  62	  69
  62	  80
  62	  87
  62	 102
  63	  64
  63	  70
  63	  72
  63	  83
  63	  91
  63	  94
  63	 112
  63	 117
  64	  66
  64	 101
  64	 103
  65	  72
  65	  73
  65	  75
  65	  78
  65	 107
  66	  71
  66	  83
  66	  87
  66	 103
  67	  68
  67	  72
  67	  81
  67	  82
  67	  87
  67	  91
  67	  97
  67	 101
  67	 111
  68	  71
  68	  78
  68	  79
  68	  85
  68	  91
  68	  94
  68	  97
  69	 114
  70	  96
  70	  98
  70	 100
  70	 115
  70	 118
  71	  74
  71	  75
  71	  81
  71	 107
  71	 115
  72	  77
  72	 117
  73	  75
  73	  77
  73	  99
  74	  76
  74	  78
  74	  82
  74	 109
  74	 115
  74	 117
  75	  83
  75	 106
  75	 109
  76	  79
  76	  91
  76	  92
  76	 104
  77	  87
  77	 103
  77	 119
  78	  96
  78	 103
  78	 105
  78	 116
  79	  84
  79	  99
  79	 117
  80	  87
  80	 109
  81	 102
  81	 106
  81	 110
  82	  87
  82	  93
  82	  98
  82	 101
  82	 113
  82	 116
  83	  85
  83	  94
  83	 108
  84	  92
  84	  94
  84	  96
  84	 116
  84	 117
  85	 105
  85	 113
  85	 116
  86	  87
  86	 102
  86	 106
  86	 112
  86	 115
  87	  99
  87	 115
  87	 119
  88	  98
  88	 103
  88	 108
  88	 117
  88	 119
  89	  91
  89	  98
  89	  99
  89	 101
  89	 102
  89	 103
  89	 114
  89	 119
  90	  92
  90	 105
  90	 110
  90	 119
  91	  95
  91	 100
  92	  93
  92	 107
  93	 111
  93	 112
  93	 116
  93	 118
  94	  99
  94	 103
  94	 111
  95	  98
  96	 101
  96	 102
  97	  98
  97	 106
  97	 109
  98	  99
 100	 104
 101	 103
 101	 112
 102	 107
 102	 115
 104	 117
 105	 115
 105	 117
 106	 107
 106	 109
 106	 111
 110	 111
 111	 112
 111	 116
 113	 116
 113	 118
 113	 119
 114	 118
 118	 119
;
